n = 50;
C = 257;
w = [138,11,319,308,87,449,147,460,226,53,456,149,140,415,242,413,272,469,387,28,292,250,465,456,414,419,300,266,193,153,227,162,29,152,424,139,163,28,481,1,62,298,500,405,219,171,87,40,390,497];
p = [54,381,142,335,230,95,469,110,258,355,351,112,102,26,105,103,141,176,449,300,12,264,396,42,433,195,1,7,117,404,372,496,410,334,40,460,166,476,197,164,378,273,62,334,407,350,312,166,113,383];
